DATASET = "thpack3";
INSTANCE = "017";

WIDTH = 233;
HEIGHT = 220;
LENGTH = 587;

NO_OF_SHAPES = 8;
size = [|
  72,49,35 |
  75,66,47 |
  78,30,22 |
  119,79,79 |
  76,65,62 |
  119,81,65 |
  91,77,36 |
  113,89,27 |
|];

verticality = [|
  0,1,1 |
  1,1,1 |
  0,1,1 |
  1,1,1 |
  1,1,1 |
  1,1,1 |
  0,0,1 |
  0,0,1 |
|];

box_count = [
  12,
  8,
  11,
  15,
  15,
  10,
  5,
  10,
];
